p edge 13 40
e 1 9
e 1 13
e 2 4
e 2 3
e 2 12
e 3 5
e 3 6
e 3 4
e 3 2
e 4 5
e 4 3
e 4 2
e 5 7
e 5 8
e 5 4
e 5 3
e 6 7
e 6 3
e 7 13
e 7 8
e 7 6
e 7 5
e 8 11
e 8 9
e 8 10
e 8 7
e 8 5
e 9 10
e 9 13
e 9 8
e 9 1
e 10 9
e 10 8
e 11 12
e 11 8
e 12 11
e 12 2
e 13 9
e 13 7
e 13 1
